#ifndef _NANOSTRUCT_INC_
#define _NANOSTRUCT_INC_


molecule{
	name = "AuNP_887";
	atom[0]{
		type = "Au";
		position(-8.16,-8.16,-8.16);
	}
	atom[1]{
		type = "Au";
		position(-2.04,-4.08,-2.04);
	}
	atom[2]{
		type = "Au";
		position(6.12,6.12,12.24);
	}
	atom[3]{
		type = "Au";
		position(-10.2,6.12,-8.16);
	}
	atom[4]{
		type = "Au";
		position(2.04,8.16,10.2);
	}
	atom[5]{
		type = "Au";
		position(0.0,-4.08,4.08);
	}
	atom[6]{
		type = "Au";
		position(6.12,10.2,-8.16);
	}
	atom[7]{
		type = "Au";
		position(-2.04,-2.04,0.0);
	}
	atom[8]{
		type = "Au";
		position(-8.16,2.04,-2.04);
	}
	atom[9]{
		type = "Au";
		position(-4.08,4.08,0.0);
	}
	atom[10]{
		type = "Au";
		position(8.16,2.04,2.04);
	}
	atom[11]{
		type = "Au";
		position(-4.08,2.04,2.04);
	}
	atom[12]{
		type = "Au";
		position(-2.04,4.08,10.2);
	}
	atom[13]{
		type = "Au";
		position(-14.28,-2.04,0.0);
	}
	atom[14]{
		type = "Au";
		position(2.04,12.24,-2.04);
	}
	atom[15]{
		type = "Au";
		position(10.2,2.04,-4.08);
	}
	atom[16]{
		type = "Au";
		position(6.12,-8.16,-6.12);
	}
	atom[17]{
		type = "Au";
		position(12.24,-6.12,-6.12);
	}
	atom[18]{
		type = "Au";
		position(6.12,-2.04,8.16);
	}
	atom[19]{
		type = "Au";
		position(4.08,8.16,8.16);
	}
	atom[20]{
		type = "Au";
		position(6.12,-12.24,2.04);
	}
	atom[21]{
		type = "Au";
		position(8.16,6.12,10.2);
	}
	atom[22]{
		type = "Au";
		position(2.04,-12.24,6.12);
	}
	atom[23]{
		type = "Au";
		position(4.08,-10.2,-10.2);
	}
	atom[24]{
		type = "Au";
		position(-2.04,6.12,12.24);
	}
	atom[25]{
		type = "Au";
		position(-8.16,4.08,0.0);
	}
	atom[26]{
		type = "Au";
		position(2.04,10.2,0.0);
	}
	atom[27]{
		type = "Au";
		position(12.24,-4.08,-4.08);
	}
	atom[28]{
		type = "Au";
		position(-6.12,-10.2,4.08);
	}
	atom[29]{
		type = "Au";
		position(10.2,0.0,2.04);
	}
	atom[30]{
		type = "Au";
		position(-2.04,6.12,0.0);
	}
	atom[31]{
		type = "Au";
		position(2.04,-8.16,-10.2);
	}
	atom[32]{
		type = "Au";
		position(2.04,10.2,-8.16);
	}
	atom[33]{
		type = "Au";
		position(6.12,-12.24,-2.04);
	}
	atom[34]{
		type = "Au";
		position(-4.08,12.24,4.08);
	}
	atom[35]{
		type = "Au";
		position(-8.16,-8.16,-4.08);
	}
	atom[36]{
		type = "Au";
		position(6.12,-2.04,4.08);
	}
	atom[37]{
		type = "Au";
		position(6.12,8.16,2.04);
	}
	atom[38]{
		type = "Au";
		position(-8.16,6.12,10.2);
	}
	atom[39]{
		type = "Au";
		position(-4.08,-2.04,-10.2);
	}
	atom[40]{
		type = "Au";
		position(-10.2,0.0,10.2);
	}
	atom[41]{
		type = "Au";
		position(6.12,0.0,10.2);
	}
	atom[42]{
		type = "Au";
		position(8.16,2.04,10.2);
	}
	atom[43]{
		type = "Au";
		position(2.04,12.24,6.12);
	}
	atom[44]{
		type = "Au";
		position(12.24,6.12,-2.04);
	}
	atom[45]{
		type = "Au";
		position(-8.16,2.04,10.2);
	}
	atom[46]{
		type = "Au";
		position(-6.12,-10.2,8.16);
	}
	atom[47]{
		type = "Au";
		position(8.16,0.0,4.08);
	}
	atom[48]{
		type = "Au";
		position(12.24,6.12,2.04);
	}
	atom[49]{
		type = "Au";
		position(-2.04,-6.12,4.08);
	}
	atom[50]{
		type = "Au";
		position(6.12,8.16,10.2);
	}
	atom[51]{
		type = "Au";
		position(-6.12,2.04,-4.08);
	}
	atom[52]{
		type = "Au";
		position(8.16,-8.16,0.0);
	}
	atom[53]{
		type = "Au";
		position(-10.2,-2.04,4.08);
	}
	atom[54]{
		type = "Au";
		position(-2.04,12.24,-2.04);
	}
	atom[55]{
		type = "Au";
		position(-6.12,6.12,8.16);
	}
	atom[56]{
		type = "Au";
		position(-12.24,2.04,-6.12);
	}
	atom[57]{
		type = "Au";
		position(-6.12,-12.24,6.12);
	}
	atom[58]{
		type = "Au";
		position(-6.12,-4.08,6.12);
	}
	atom[59]{
		type = "Au";
		position(-4.08,2.04,-2.04);
	}
	atom[60]{
		type = "Au";
		position(-2.04,12.24,-6.12);
	}
	atom[61]{
		type = "Au";
		position(-4.08,14.28,-2.04);
	}
	atom[62]{
		type = "Au";
		position(-6.12,-4.08,-2.04);
	}
	atom[63]{
		type = "Au";
		position(2.04,-12.24,-6.12);
	}
	atom[64]{
		type = "Au";
		position(0.0,0.0,-8.16);
	}
	atom[65]{
		type = "Au";
		position(10.2,-10.2,4.08);
	}
	atom[66]{
		type = "Au";
		position(4.08,10.2,6.12);
	}
	atom[67]{
		type = "Au";
		position(-12.24,-4.08,-4.08);
	}
	atom[68]{
		type = "Au";
		position(0.0,8.16,8.16);
	}
	atom[69]{
		type = "Au";
		position(4.08,10.2,-10.2);
	}
	atom[70]{
		type = "Au";
		position(-12.24,-6.12,6.12);
	}
	atom[71]{
		type = "Au";
		position(10.2,-2.04,8.16);
	}
	atom[72]{
		type = "Au";
		position(6.12,10.2,-4.08);
	}
	atom[73]{
		type = "Au";
		position(4.08,-4.08,0.0);
	}
	atom[74]{
		type = "Au";
		position(-10.2,4.08,6.12);
	}
	atom[75]{
		type = "Au";
		position(2.04,-6.12,-4.08);
	}
	atom[76]{
		type = "Au";
		position(0.0,10.2,-6.12);
	}
	atom[77]{
		type = "Au";
		position(4.08,8.16,-4.08);
	}
	atom[78]{
		type = "Au";
		position(-2.04,-8.16,-10.2);
	}
	atom[79]{
		type = "Au";
		position(-4.08,-4.08,-4.08);
	}
	atom[80]{
		type = "Au";
		position(-10.2,-6.12,0.0);
	}
	atom[81]{
		type = "Au";
		position(2.04,12.24,2.04);
	}
	atom[82]{
		type = "Au";
		position(6.12,-6.12,4.08);
	}
	atom[83]{
		type = "Au";
		position(-10.2,-6.12,-4.08);
	}
	atom[84]{
		type = "Au";
		position(-8.16,-8.16,8.16);
	}
	atom[85]{
		type = "Au";
		position(-10.2,-4.08,6.12);
	}
	atom[86]{
		type = "Au";
		position(6.12,6.12,8.16);
	}
	atom[87]{
		type = "Au";
		position(-8.16,-2.04,-10.2);
	}
	atom[88]{
		type = "Au";
		position(12.24,0.0,4.08);
	}
	atom[89]{
		type = "Au";
		position(0.0,-8.16,12.24);
	}
	atom[90]{
		type = "Au";
		position(-2.04,-12.24,-6.12);
	}
	atom[91]{
		type = "Au";
		position(-4.08,-8.16,0.0);
	}
	atom[92]{
		type = "Au";
		position(2.04,-2.04,-12.24);
	}
	atom[93]{
		type = "Au";
		position(4.08,-8.16,-8.16);
	}
	atom[94]{
		type = "Au";
		position(-6.12,2.04,-12.24);
	}
	atom[95]{
		type = "Au";
		position(2.04,10.2,4.08);
	}
	atom[96]{
		type = "Au";
		position(10.2,-8.16,-2.04);
	}
	atom[97]{
		type = "Au";
		position(6.12,8.16,6.12);
	}
	atom[98]{
		type = "Au";
		position(10.2,0.0,-6.12);
	}
	atom[99]{
		type = "Au";
		position(8.16,10.2,-2.04);
	}
	atom[100]{
		type = "Au";
		position(2.04,6.12,12.24);
	}
	atom[101]{
		type = "Au";
		position(6.12,-6.12,12.24);
	}
	atom[102]{
		type = "Au";
		position(-6.12,2.04,12.24);
	}
	atom[103]{
		type = "Au";
		position(4.08,2.04,-6.12);
	}
	atom[104]{
		type = "Au";
		position(-4.08,6.12,-10.2);
	}
	atom[105]{
		type = "Au";
		position(2.04,2.04,-4.08);
	}
	atom[106]{
		type = "Au";
		position(-2.04,12.24,2.04);
	}
	atom[107]{
		type = "Au";
		position(0.0,2.04,-2.04);
	}
	atom[108]{
		type = "Au";
		position(4.08,-2.04,6.12);
	}
	atom[109]{
		type = "Au";
		position(10.2,8.16,2.04);
	}
	atom[110]{
		type = "Au";
		position(-10.2,8.16,6.12);
	}
	atom[111]{
		type = "Au";
		position(-12.24,0.0,-8.16);
	}
	atom[112]{
		type = "Au";
		position(-12.24,2.04,6.12);
	}
	atom[113]{
		type = "Au";
		position(0.0,0.0,12.24);
	}
	atom[114]{
		type = "Au";
		position(-6.12,6.12,-4.08);
	}
	atom[115]{
		type = "Au";
		position(-10.2,4.08,-10.2);
	}
	atom[116]{
		type = "Au";
		position(2.04,2.04,-12.24);
	}
	atom[117]{
		type = "Au";
		position(6.12,4.08,-2.04);
	}
	atom[118]{
		type = "Au";
		position(4.08,-12.24,4.08);
	}
	atom[119]{
		type = "Au";
		position(12.24,-2.04,-6.12);
	}
	atom[120]{
		type = "Au";
		position(4.08,4.08,8.16);
	}
	atom[121]{
		type = "Au";
		position(2.04,8.16,-6.12);
	}
	atom[122]{
		type = "Au";
		position(-10.2,4.08,-2.04);
	}
	atom[123]{
		type = "Au";
		position(8.16,2.04,6.12);
	}
	atom[124]{
		type = "Au";
		position(0.0,8.16,12.24);
	}
	atom[125]{
		type = "Au";
		position(4.08,10.2,10.2);
	}
	atom[126]{
		type = "Au";
		position(0.0,2.04,-14.28);
	}
	atom[127]{
		type = "Au";
		position(4.08,-6.12,6.12);
	}
	atom[128]{
		type = "Au";
		position(2.04,-10.2,4.08);
	}
	atom[129]{
		type = "Au";
		position(-4.08,0.0,-12.24);
	}
	atom[130]{
		type = "Au";
		position(-2.04,-2.04,8.16);
	}
	atom[131]{
		type = "Au";
		position(10.2,-4.08,10.2);
	}
	atom[132]{
		type = "Au";
		position(12.24,4.08,-4.08);
	}
	atom[133]{
		type = "Au";
		position(2.04,2.04,0.0);
	}
	atom[134]{
		type = "Au";
		position(-6.12,4.08,-6.12);
	}
	atom[135]{
		type = "Au";
		position(-10.2,2.04,-8.16);
	}
	atom[136]{
		type = "Au";
		position(-4.08,10.2,-6.12);
	}
	atom[137]{
		type = "Au";
		position(10.2,4.08,-10.2);
	}
	atom[138]{
		type = "Au";
		position(-4.08,-10.2,2.04);
	}
	atom[139]{
		type = "Au";
		position(6.12,-2.04,-12.24);
	}
	atom[140]{
		type = "Au";
		position(10.2,-2.04,-8.16);
	}
	atom[141]{
		type = "Au";
		position(0.0,-2.04,-6.12);
	}
	atom[142]{
		type = "Au";
		position(4.08,4.08,-4.08);
	}
	atom[143]{
		type = "Au";
		position(10.2,-2.04,-4.08);
	}
	atom[144]{
		type = "Au";
		position(0.0,-14.28,2.04);
	}
	atom[145]{
		type = "Au";
		position(0.0,0.0,0.0);
	}
	atom[146]{
		type = "Au";
		position(4.08,-2.04,-14.28);
	}
	atom[147]{
		type = "Au";
		position(-4.08,-10.2,-6.12);
	}
	atom[148]{
		type = "Au";
		position(6.12,12.24,6.12);
	}
	atom[149]{
		type = "Au";
		position(-8.16,-2.04,6.12);
	}
	atom[150]{
		type = "Au";
		position(14.28,-4.08,2.04);
	}
	atom[151]{
		type = "Au";
		position(8.16,4.08,-8.16);
	}
	atom[152]{
		type = "Au";
		position(-2.04,-6.12,0.0);
	}
	atom[153]{
		type = "Au";
		position(0.0,6.12,10.2);
	}
	atom[154]{
		type = "Au";
		position(-8.16,8.16,-4.08);
	}
	atom[155]{
		type = "Au";
		position(-6.12,2.04,-8.16);
	}
	atom[156]{
		type = "Au";
		position(-8.16,2.04,-10.2);
	}
	atom[157]{
		type = "Au";
		position(8.16,6.12,6.12);
	}
	atom[158]{
		type = "Au";
		position(6.12,8.16,-10.2);
	}
	atom[159]{
		type = "Au";
		position(-10.2,4.08,2.04);
	}
	atom[160]{
		type = "Au";
		position(-10.2,8.16,-6.12);
	}
	atom[161]{
		type = "Au";
		position(-8.16,-2.04,-6.12);
	}
	atom[162]{
		type = "Au";
		position(6.12,-2.04,-4.08);
	}
	atom[163]{
		type = "Au";
		position(-2.04,6.12,4.08);
	}
	atom[164]{
		type = "Au";
		position(-2.04,14.28,4.08);
	}
	atom[165]{
		type = "Au";
		position(10.2,-8.16,-6.12);
	}
	atom[166]{
		type = "Au";
		position(-2.04,-6.12,12.24);
	}
	atom[167]{
		type = "Au";
		position(10.2,-4.08,-2.04);
	}
	atom[168]{
		type = "Au";
		position(0.0,-10.2,2.04);
	}
	atom[169]{
		type = "Au";
		position(10.2,-2.04,4.08);
	}
	atom[170]{
		type = "Au";
		position(-12.24,-6.12,2.04);
	}
	atom[171]{
		type = "Au";
		position(-10.2,-4.08,-10.2);
	}
	atom[172]{
		type = "Au";
		position(-12.24,-2.04,-2.04);
	}
	atom[173]{
		type = "Au";
		position(14.28,0.0,-2.04);
	}
	atom[174]{
		type = "Au";
		position(-2.04,-12.24,6.12);
	}
	atom[175]{
		type = "Au";
		position(10.2,-4.08,-10.2);
	}
	atom[176]{
		type = "Au";
		position(-2.04,0.0,-2.04);
	}
	atom[177]{
		type = "Au";
		position(0.0,8.16,4.08);
	}
	atom[178]{
		type = "Au";
		position(-6.12,4.08,2.04);
	}
	atom[179]{
		type = "Au";
		position(-2.04,8.16,6.12);
	}
	atom[180]{
		type = "Au";
		position(0.0,6.12,-2.04);
	}
	atom[181]{
		type = "Au";
		position(4.08,6.12,10.2);
	}
	atom[182]{
		type = "Au";
		position(-4.08,4.08,-4.08);
	}
	atom[183]{
		type = "Au";
		position(10.2,-6.12,0.0);
	}
	atom[184]{
		type = "Au";
		position(-6.12,8.16,2.04);
	}
	atom[185]{
		type = "Au";
		position(-2.04,2.04,12.24);
	}
	atom[186]{
		type = "Au";
		position(-6.12,-8.16,2.04);
	}
	atom[187]{
		type = "Au";
		position(-6.12,-10.2,-8.16);
	}
	atom[188]{
		type = "Au";
		position(-2.04,-4.08,-14.28);
	}
	atom[189]{
		type = "Au";
		position(-4.08,-8.16,8.16);
	}
	atom[190]{
		type = "Au";
		position(6.12,0.0,2.04);
	}
	atom[191]{
		type = "Au";
		position(2.04,-4.08,-2.04);
	}
	atom[192]{
		type = "Au";
		position(-8.16,-4.08,8.16);
	}
	atom[193]{
		type = "Au";
		position(0.0,-8.16,-4.08);
	}
	atom[194]{
		type = "Au";
		position(0.0,4.08,8.16);
	}
	atom[195]{
		type = "Au";
		position(-6.12,10.2,-8.16);
	}
	atom[196]{
		type = "Au";
		position(-10.2,4.08,-6.12);
	}
	atom[197]{
		type = "Au";
		position(4.08,8.16,-8.16);
	}
	atom[198]{
		type = "Au";
		position(4.08,0.0,4.08);
	}
	atom[199]{
		type = "Au";
		position(10.2,-4.08,6.12);
	}
	atom[200]{
		type = "Au";
		position(2.04,2.04,4.08);
	}
	atom[201]{
		type = "Au";
		position(-14.28,2.04,4.08);
	}
	atom[202]{
		type = "Au";
		position(-12.24,0.0,4.08);
	}
	atom[203]{
		type = "Au";
		position(-8.16,0.0,8.16);
	}
	atom[204]{
		type = "Au";
		position(2.04,-6.12,-8.16);
	}
	atom[205]{
		type = "Au";
		position(8.16,4.08,0.0);
	}
	atom[206]{
		type = "Au";
		position(10.2,-10.2,0.0);
	}
	atom[207]{
		type = "Au";
		position(0.0,-2.04,2.04);
	}
	atom[208]{
		type = "Au";
		position(8.16,8.16,-8.16);
	}
	atom[209]{
		type = "Au";
		position(-2.04,-2.04,-4.08);
	}
	atom[210]{
		type = "Au";
		position(2.04,6.12,0.0);
	}
	atom[211]{
		type = "Au";
		position(-10.2,-6.12,4.08);
	}
	atom[212]{
		type = "Au";
		position(0.0,-2.04,-2.04);
	}
	atom[213]{
		type = "Au";
		position(-4.08,-4.08,-12.24);
	}
	atom[214]{
		type = "Au";
		position(10.2,10.2,4.08);
	}
	atom[215]{
		type = "Au";
		position(2.04,-2.04,12.24);
	}
	atom[216]{
		type = "Au";
		position(2.04,-14.28,4.08);
	}
	atom[217]{
		type = "Au";
		position(-10.2,-2.04,8.16);
	}
	atom[218]{
		type = "Au";
		position(-4.08,6.12,10.2);
	}
	atom[219]{
		type = "Au";
		position(-2.04,2.04,4.08);
	}
	atom[220]{
		type = "Au";
		position(-4.08,14.28,2.04);
	}
	atom[221]{
		type = "Au";
		position(12.24,0.0,8.16);
	}
	atom[222]{
		type = "Au";
		position(10.2,-4.08,2.04);
	}
	atom[223]{
		type = "Au";
		position(-10.2,6.12,8.16);
	}
	atom[224]{
		type = "Au";
		position(-8.16,2.04,-6.12);
	}
	atom[225]{
		type = "Au";
		position(-6.12,6.12,4.08);
	}
	atom[226]{
		type = "Au";
		position(-8.16,-10.2,6.12);
	}
	atom[227]{
		type = "Au";
		position(6.12,-12.24,6.12);
	}
	atom[228]{
		type = "Au";
		position(-12.24,6.12,2.04);
	}
	atom[229]{
		type = "Au";
		position(6.12,-8.16,-2.04);
	}
	atom[230]{
		type = "Au";
		position(0.0,0.0,8.16);
	}
	atom[231]{
		type = "Au";
		position(-4.08,-4.08,0.0);
	}
	atom[232]{
		type = "Au";
		position(-8.16,10.2,2.04);
	}
	atom[233]{
		type = "Au";
		position(-8.16,10.2,6.12);
	}
	atom[234]{
		type = "Au";
		position(14.28,-2.04,4.08);
	}
	atom[235]{
		type = "Au";
		position(6.12,2.04,4.08);
	}
	atom[236]{
		type = "Au";
		position(6.12,2.04,-12.24);
	}
	atom[237]{
		type = "Au";
		position(0.0,-2.04,14.28);
	}
	atom[238]{
		type = "Au";
		position(-8.16,8.16,8.16);
	}
	atom[239]{
		type = "Au";
		position(8.16,-2.04,-6.12);
	}
	atom[240]{
		type = "Au";
		position(2.04,-4.08,-14.28);
	}
	atom[241]{
		type = "Au";
		position(-8.16,8.16,0.0);
	}
	atom[242]{
		type = "Au";
		position(6.12,8.16,-6.12);
	}
	atom[243]{
		type = "Au";
		position(0.0,-4.08,0.0);
	}
	atom[244]{
		type = "Au";
		position(0.0,4.08,-12.24);
	}
	atom[245]{
		type = "Au";
		position(-10.2,0.0,-10.2);
	}
	atom[246]{
		type = "Au";
		position(-4.08,6.12,-2.04);
	}
	atom[247]{
		type = "Au";
		position(10.2,-8.16,6.12);
	}
	atom[248]{
		type = "Au";
		position(-6.12,-2.04,4.08);
	}
	atom[249]{
		type = "Au";
		position(6.12,-12.24,-6.12);
	}
	atom[250]{
		type = "Au";
		position(-2.04,6.12,-12.24);
	}
	atom[251]{
		type = "Au";
		position(6.12,-6.12,-4.08);
	}
	atom[252]{
		type = "Au";
		position(8.16,-6.12,10.2);
	}
	atom[253]{
		type = "Au";
		position(12.24,-2.04,2.04);
	}
	atom[254]{
		type = "Au";
		position(-2.04,0.0,-10.2);
	}
	atom[255]{
		type = "Au";
		position(-4.08,-2.04,2.04);
	}
	atom[256]{
		type = "Au";
		position(-10.2,-2.04,-4.08);
	}
	atom[257]{
		type = "Au";
		position(0.0,2.04,14.28);
	}
	atom[258]{
		type = "Au";
		position(-10.2,2.04,0.0);
	}
	atom[259]{
		type = "Au";
		position(-2.04,4.08,2.04);
	}
	atom[260]{
		type = "Au";
		position(4.08,-8.16,8.16);
	}
	atom[261]{
		type = "Au";
		position(-10.2,10.2,4.08);
	}
	atom[262]{
		type = "Au";
		position(12.24,8.16,0.0);
	}
	atom[263]{
		type = "Au";
		position(-4.08,2.04,10.2);
	}
	atom[264]{
		type = "Au";
		position(0.0,-2.04,10.2);
	}
	atom[265]{
		type = "Au";
		position(4.08,6.12,-10.2);
	}
	atom[266]{
		type = "Au";
		position(-8.16,-4.08,-8.16);
	}
	atom[267]{
		type = "Au";
		position(-2.04,2.04,-8.16);
	}
	atom[268]{
		type = "Au";
		position(10.2,6.12,4.08);
	}
	atom[269]{
		type = "Au";
		position(6.12,-6.12,8.16);
	}
	atom[270]{
		type = "Au";
		position(12.24,-4.08,0.0);
	}
	atom[271]{
		type = "Au";
		position(-6.12,-12.24,-6.12);
	}
	atom[272]{
		type = "Au";
		position(-2.04,8.16,-6.12);
	}
	atom[273]{
		type = "Au";
		position(-10.2,-10.2,0.0);
	}
	atom[274]{
		type = "Au";
		position(10.2,-6.12,4.08);
	}
	atom[275]{
		type = "Au";
		position(6.12,12.24,-2.04);
	}
	atom[276]{
		type = "Au";
		position(-4.08,0.0,-8.16);
	}
	atom[277]{
		type = "Au";
		position(-4.08,2.04,-14.28);
	}
	atom[278]{
		type = "Au";
		position(-4.08,-12.24,-4.08);
	}
	atom[279]{
		type = "Au";
		position(-2.04,-6.12,-8.16);
	}
	atom[280]{
		type = "Au";
		position(12.24,6.12,-6.12);
	}
	atom[281]{
		type = "Au";
		position(-12.24,0.0,0.0);
	}
	atom[282]{
		type = "Au";
		position(-6.12,12.24,2.04);
	}
	atom[283]{
		type = "Au";
		position(6.12,-8.16,-10.2);
	}
	atom[284]{
		type = "Au";
		position(-4.08,0.0,-4.08);
	}
	atom[285]{
		type = "Au";
		position(2.04,0.0,2.04);
	}
	atom[286]{
		type = "Au";
		position(8.16,0.0,8.16);
	}
	atom[287]{
		type = "Au";
		position(-6.12,-8.16,-2.04);
	}
	atom[288]{
		type = "Au";
		position(-12.24,6.12,-6.12);
	}
	atom[289]{
		type = "Au";
		position(6.12,-2.04,-8.16);
	}
	atom[290]{
		type = "Au";
		position(-10.2,0.0,-6.12);
	}
	atom[291]{
		type = "Au";
		position(-8.16,-6.12,-10.2);
	}
	atom[292]{
		type = "Au";
		position(0.0,4.08,0.0);
	}
	atom[293]{
		type = "Au";
		position(-2.04,6.12,-4.08);
	}
	atom[294]{
		type = "Au";
		position(2.04,8.16,-10.2);
	}
	atom[295]{
		type = "Au";
		position(8.16,-6.12,-2.04);
	}
	atom[296]{
		type = "Au";
		position(-10.2,10.2,0.0);
	}
	atom[297]{
		type = "Au";
		position(12.24,2.04,-2.04);
	}
	atom[298]{
		type = "Au";
		position(8.16,-4.08,-8.16);
	}
	atom[299]{
		type = "Au";
		position(-8.16,6.12,-2.04);
	}
	atom[300]{
		type = "Au";
		position(-4.08,0.0,12.24);
	}
	atom[301]{
		type = "Au";
		position(0.0,6.12,-6.12);
	}
	atom[302]{
		type = "Au";
		position(4.08,-6.12,-10.2);
	}
	atom[303]{
		type = "Au";
		position(14.28,2.04,4.08);
	}
	atom[304]{
		type = "Au";
		position(4.08,-2.04,14.28);
	}
	atom[305]{
		type = "Au";
		position(-2.04,-12.24,2.04);
	}
	atom[306]{
		type = "Au";
		position(-6.12,-2.04,8.16);
	}
	atom[307]{
		type = "Au";
		position(-6.12,2.04,4.08);
	}
	atom[308]{
		type = "Au";
		position(2.04,-6.12,0.0);
	}
	atom[309]{
		type = "Au";
		position(-10.2,-8.16,2.04);
	}
	atom[310]{
		type = "Au";
		position(-12.24,-6.12,-6.12);
	}
	atom[311]{
		type = "Au";
		position(2.04,6.12,-12.24);
	}
	atom[312]{
		type = "Au";
		position(4.08,-12.24,0.0);
	}
	atom[313]{
		type = "Au";
		position(6.12,0.0,-6.12);
	}
	atom[314]{
		type = "Au";
		position(12.24,-6.12,-2.04);
	}
	atom[315]{
		type = "Au";
		position(0.0,8.16,-8.16);
	}
	atom[316]{
		type = "Au";
		position(-10.2,2.04,8.16);
	}
	atom[317]{
		type = "Au";
		position(-4.08,-4.08,8.16);
	}
	atom[318]{
		type = "Au";
		position(0.0,4.08,-8.16);
	}
	atom[319]{
		type = "Au";
		position(8.16,-4.08,8.16);
	}
	atom[320]{
		type = "Au";
		position(-4.08,-4.08,12.24);
	}
	atom[321]{
		type = "Au";
		position(-8.16,-2.04,-2.04);
	}
	atom[322]{
		type = "Au";
		position(0.0,-2.04,-10.2);
	}
	atom[323]{
		type = "Au";
		position(2.04,4.08,14.28);
	}
	atom[324]{
		type = "Au";
		position(-10.2,-8.16,-2.04);
	}
	atom[325]{
		type = "Au";
		position(-10.2,2.04,-4.08);
	}
	atom[326]{
		type = "Au";
		position(8.16,-4.08,4.08);
	}
	atom[327]{
		type = "Au";
		position(-4.08,-8.16,-4.08);
	}
	atom[328]{
		type = "Au";
		position(-2.04,-2.04,-8.16);
	}
	atom[329]{
		type = "Au";
		position(-2.04,10.2,4.08);
	}
	atom[330]{
		type = "Au";
		position(8.16,-10.2,2.04);
	}
	atom[331]{
		type = "Au";
		position(-4.08,-10.2,6.12);
	}
	atom[332]{
		type = "Au";
		position(4.08,2.04,6.12);
	}
	atom[333]{
		type = "Au";
		position(6.12,-6.12,0.0);
	}
	atom[334]{
		type = "Au";
		position(-6.12,4.08,10.2);
	}
	atom[335]{
		type = "Au";
		position(2.04,-10.2,-4.08);
	}
	atom[336]{
		type = "Au";
		position(10.2,2.04,-8.16);
	}
	atom[337]{
		type = "Au";
		position(-4.08,12.24,-4.08);
	}
	atom[338]{
		type = "Au";
		position(-14.28,4.08,-2.04);
	}
	atom[339]{
		type = "Au";
		position(4.08,-2.04,10.2);
	}
	atom[340]{
		type = "Au";
		position(-6.12,12.24,6.12);
	}
	atom[341]{
		type = "Au";
		position(10.2,-6.12,8.16);
	}
	atom[342]{
		type = "Au";
		position(-2.04,10.2,-8.16);
	}
	atom[343]{
		type = "Au";
		position(4.08,-10.2,10.2);
	}
	atom[344]{
		type = "Au";
		position(-12.24,-2.04,2.04);
	}
	atom[345]{
		type = "Au";
		position(8.16,-10.2,6.12);
	}
	atom[346]{
		type = "Au";
		position(2.04,-10.2,0.0);
	}
	atom[347]{
		type = "Au";
		position(12.24,-6.12,6.12);
	}
	atom[348]{
		type = "Au";
		position(0.0,-10.2,-10.2);
	}
	atom[349]{
		type = "Au";
		position(-10.2,8.16,2.04);
	}
	atom[350]{
		type = "Au";
		position(-6.12,-10.2,0.0);
	}
	atom[351]{
		type = "Au";
		position(-6.12,2.04,0.0);
	}
	atom[352]{
		type = "Au";
		position(2.04,-8.16,-2.04);
	}
	atom[353]{
		type = "Au";
		position(-4.08,-2.04,6.12);
	}
	atom[354]{
		type = "Au";
		position(-2.04,-4.08,-10.2);
	}
	atom[355]{
		type = "Au";
		position(4.08,0.0,0.0);
	}
	atom[356]{
		type = "Au";
		position(10.2,4.08,10.2);
	}
	atom[357]{
		type = "Au";
		position(-10.2,-4.08,2.04);
	}
	atom[358]{
		type = "Au";
		position(6.12,10.2,0.0);
	}
	atom[359]{
		type = "Au";
		position(6.12,2.04,12.24);
	}
	atom[360]{
		type = "Au";
		position(-12.24,-6.12,-2.04);
	}
	atom[361]{
		type = "Au";
		position(12.24,-2.04,-2.04);
	}
	atom[362]{
		type = "Au";
		position(-6.12,6.12,0.0);
	}
	atom[363]{
		type = "Au";
		position(-4.08,6.12,2.04);
	}
	atom[364]{
		type = "Au";
		position(4.08,0.0,8.16);
	}
	atom[365]{
		type = "Au";
		position(6.12,-8.16,2.04);
	}
	atom[366]{
		type = "Au";
		position(-6.12,4.08,6.12);
	}
	atom[367]{
		type = "Au";
		position(-12.24,6.12,6.12);
	}
	atom[368]{
		type = "Au";
		position(-4.08,-2.04,10.2);
	}
	atom[369]{
		type = "Au";
		position(10.2,6.12,-8.16);
	}
	atom[370]{
		type = "Au";
		position(-2.04,0.0,2.04);
	}
	atom[371]{
		type = "Au";
		position(4.08,4.08,-8.16);
	}
	atom[372]{
		type = "Au";
		position(-8.16,4.08,-4.08);
	}
	atom[373]{
		type = "Au";
		position(8.16,-6.12,-6.12);
	}
	atom[374]{
		type = "Au";
		position(-2.04,6.12,-8.16);
	}
	atom[375]{
		type = "Au";
		position(4.08,-8.16,4.08);
	}
	atom[376]{
		type = "Au";
		position(12.24,-6.12,2.04);
	}
	atom[377]{
		type = "Au";
		position(2.04,4.08,-6.12);
	}
	atom[378]{
		type = "Au";
		position(6.12,4.08,2.04);
	}
	atom[379]{
		type = "Au";
		position(12.24,-4.08,4.08);
	}
	atom[380]{
		type = "Au";
		position(8.16,-2.04,10.2);
	}
	atom[381]{
		type = "Au";
		position(-10.2,10.2,-4.08);
	}
	atom[382]{
		type = "Au";
		position(2.04,12.24,-6.12);
	}
	atom[383]{
		type = "Au";
		position(-6.12,-6.12,-12.24);
	}
	atom[384]{
		type = "Au";
		position(14.28,2.04,0.0);
	}
	atom[385]{
		type = "Au";
		position(-4.08,2.04,-10.2);
	}
	atom[386]{
		type = "Au";
		position(0.0,2.04,2.04);
	}
	atom[387]{
		type = "Au";
		position(-8.16,0.0,4.08);
	}
	atom[388]{
		type = "Au";
		position(-4.08,10.2,6.12);
	}
	atom[389]{
		type = "Au";
		position(-2.04,-10.2,4.08);
	}
	atom[390]{
		type = "Au";
		position(6.12,-10.2,-8.16);
	}
	atom[391]{
		type = "Au";
		position(-10.2,-6.12,-8.16);
	}
	atom[392]{
		type = "Au";
		position(2.04,-2.04,4.08);
	}
	atom[393]{
		type = "Au";
		position(4.08,-8.16,-4.08);
	}
	atom[394]{
		type = "Au";
		position(-12.24,-8.16,0.0);
	}
	atom[395]{
		type = "Au";
		position(-4.08,10.2,-2.04);
	}
	atom[396]{
		type = "Au";
		position(-2.04,-10.2,8.16);
	}
	atom[397]{
		type = "Au";
		position(4.08,12.24,4.08);
	}
	atom[398]{
		type = "Au";
		position(10.2,0.0,6.12);
	}
	atom[399]{
		type = "Au";
		position(-2.04,10.2,0.0);
	}
	atom[400]{
		type = "Au";
		position(-10.2,0.0,2.04);
	}
	atom[401]{
		type = "Au";
		position(-10.2,-4.08,10.2);
	}
	atom[402]{
		type = "Au";
		position(-10.2,0.0,-2.04);
	}
	atom[403]{
		type = "Au";
		position(0.0,-6.12,-6.12);
	}
	atom[404]{
		type = "Au";
		position(2.04,-2.04,8.16);
	}
	atom[405]{
		type = "Au";
		position(8.16,-12.24,0.0);
	}
	atom[406]{
		type = "Au";
		position(0.0,-14.28,-2.04);
	}
	atom[407]{
		type = "Au";
		position(14.28,4.08,-2.04);
	}
	atom[408]{
		type = "Au";
		position(-2.04,-10.2,-8.16);
	}
	atom[409]{
		type = "Au";
		position(2.04,-6.12,4.08);
	}
	atom[410]{
		type = "Au";
		position(6.12,-4.08,6.12);
	}
	atom[411]{
		type = "Au";
		position(12.24,2.04,-6.12);
	}
	atom[412]{
		type = "Au";
		position(6.12,-10.2,0.0);
	}
	atom[413]{
		type = "Au";
		position(-4.08,2.04,6.12);
	}
	atom[414]{
		type = "Au";
		position(4.08,12.24,-4.08);
	}
	atom[415]{
		type = "Au";
		position(-2.04,0.0,14.28);
	}
	atom[416]{
		type = "Au";
		position(-4.08,6.12,-6.12);
	}
	atom[417]{
		type = "Au";
		position(2.04,-12.24,-2.04);
	}
	atom[418]{
		type = "Au";
		position(2.04,6.12,-8.16);
	}
	atom[419]{
		type = "Au";
		position(0.0,10.2,6.12);
	}
	atom[420]{
		type = "Au";
		position(-12.24,2.04,2.04);
	}
	atom[421]{
		type = "Au";
		position(4.08,6.12,-2.04);
	}
	atom[422]{
		type = "Au";
		position(4.08,10.2,-6.12);
	}
	atom[423]{
		type = "Au";
		position(10.2,6.12,8.16);
	}
	atom[424]{
		type = "Au";
		position(0.0,0.0,-12.24);
	}
	atom[425]{
		type = "Au";
		position(0.0,-6.12,-10.2);
	}
	atom[426]{
		type = "Au";
		position(-4.08,-8.16,-8.16);
	}
	atom[427]{
		type = "Au";
		position(-8.16,-10.2,-2.04);
	}
	atom[428]{
		type = "Au";
		position(8.16,10.2,2.04);
	}
	atom[429]{
		type = "Au";
		position(10.2,-6.12,-4.08);
	}
	atom[430]{
		type = "Au";
		position(-6.12,0.0,-6.12);
	}
	atom[431]{
		type = "Au";
		position(0.0,4.08,12.24);
	}
	atom[432]{
		type = "Au";
		position(-2.04,-4.08,2.04);
	}
	atom[433]{
		type = "Au";
		position(-6.12,2.04,8.16);
	}
	atom[434]{
		type = "Au";
		position(2.04,8.16,2.04);
	}
	atom[435]{
		type = "Au";
		position(2.04,4.08,10.2);
	}
	atom[436]{
		type = "Au";
		position(8.16,0.0,-4.08);
	}
	atom[437]{
		type = "Au";
		position(-8.16,6.12,2.04);
	}
	atom[438]{
		type = "Au";
		position(0.0,2.04,-10.2);
	}
	atom[439]{
		type = "Au";
		position(4.08,-10.2,-2.04);
	}
	atom[440]{
		type = "Au";
		position(10.2,-6.12,-8.16);
	}
	atom[441]{
		type = "Au";
		position(-12.24,0.0,8.16);
	}
	atom[442]{
		type = "Au";
		position(0.0,0.0,-4.08);
	}
	atom[443]{
		type = "Au";
		position(2.04,0.0,6.12);
	}
	atom[444]{
		type = "Au";
		position(0.0,-10.2,10.2);
	}
	atom[445]{
		type = "Au";
		position(8.16,6.12,-10.2);
	}
	atom[446]{
		type = "Au";
		position(10.2,8.16,-2.04);
	}
	atom[447]{
		type = "Au";
		position(-4.08,0.0,4.08);
	}
	atom[448]{
		type = "Au";
		position(4.08,-4.08,-12.24);
	}
	atom[449]{
		type = "Au";
		position(0.0,12.24,8.16);
	}
	atom[450]{
		type = "Au";
		position(2.04,0.0,14.28);
	}
	atom[451]{
		type = "Au";
		position(6.12,-4.08,-10.2);
	}
	atom[452]{
		type = "Au";
		position(-12.24,-2.04,6.12);
	}
	atom[453]{
		type = "Au";
		position(8.16,6.12,-2.04);
	}
	atom[454]{
		type = "Au";
		position(-4.08,10.2,2.04);
	}
	atom[455]{
		type = "Au";
		position(4.08,0.0,-4.08);
	}
	atom[456]{
		type = "Au";
		position(10.2,-8.16,2.04);
	}
	atom[457]{
		type = "Au";
		position(6.12,8.16,-2.04);
	}
	atom[458]{
		type = "Au";
		position(6.12,12.24,-6.12);
	}
	atom[459]{
		type = "Au";
		position(2.04,6.12,-4.08);
	}
	atom[460]{
		type = "Au";
		position(10.2,-4.08,-6.12);
	}
	atom[461]{
		type = "Au";
		position(2.04,-2.04,-4.08);
	}
	atom[462]{
		type = "Au";
		position(6.12,0.0,6.12);
	}
	atom[463]{
		type = "Au";
		position(4.08,2.04,2.04);
	}
	atom[464]{
		type = "Au";
		position(-8.16,8.16,-8.16);
	}
	atom[465]{
		type = "Au";
		position(10.2,0.0,10.2);
	}
	atom[466]{
		type = "Au";
		position(-6.12,10.2,0.0);
	}
	atom[467]{
		type = "Au";
		position(-8.16,-4.08,4.08);
	}
	atom[468]{
		type = "Au";
		position(-8.16,-4.08,0.0);
	}
	atom[469]{
		type = "Au";
		position(-12.24,6.12,-2.04);
	}
	atom[470]{
		type = "Au";
		position(8.16,6.12,-6.12);
	}
	atom[471]{
		type = "Au";
		position(0.0,-4.08,8.16);
	}
	atom[472]{
		type = "Au";
		position(-2.04,-2.04,12.24);
	}
	atom[473]{
		type = "Au";
		position(-2.04,-8.16,6.12);
	}
	atom[474]{
		type = "Au";
		position(-2.04,-4.08,6.12);
	}
	atom[475]{
		type = "Au";
		position(-4.08,-14.28,2.04);
	}
	atom[476]{
		type = "Au";
		position(-2.04,-12.24,-2.04);
	}
	atom[477]{
		type = "Au";
		position(4.08,0.0,-12.24);
	}
	atom[478]{
		type = "Au";
		position(8.16,8.16,8.16);
	}
	atom[479]{
		type = "Au";
		position(8.16,-8.16,-4.08);
	}
	atom[480]{
		type = "Au";
		position(6.12,0.0,-2.04);
	}
	atom[481]{
		type = "Au";
		position(-12.24,4.08,-4.08);
	}
	atom[482]{
		type = "Au";
		position(-8.16,10.2,-2.04);
	}
	atom[483]{
		type = "Au";
		position(-2.04,-6.12,8.16);
	}
	atom[484]{
		type = "Au";
		position(-2.04,-8.16,-2.04);
	}
	atom[485]{
		type = "Au";
		position(-2.04,2.04,-12.24);
	}
	atom[486]{
		type = "Au";
		position(0.0,-8.16,-8.16);
	}
	atom[487]{
		type = "Au";
		position(-2.04,2.04,8.16);
	}
	atom[488]{
		type = "Au";
		position(6.12,-4.08,-2.04);
	}
	atom[489]{
		type = "Au";
		position(-2.04,4.08,-6.12);
	}
	atom[490]{
		type = "Au";
		position(-8.16,6.12,-6.12);
	}
	atom[491]{
		type = "Au";
		position(-4.08,4.08,-12.24);
	}
	atom[492]{
		type = "Au";
		position(-4.08,-10.2,10.2);
	}
	atom[493]{
		type = "Au";
		position(8.16,-8.16,-8.16);
	}
	atom[494]{
		type = "Au";
		position(-10.2,-10.2,-4.08);
	}
	atom[495]{
		type = "Au";
		position(6.12,-6.12,-12.24);
	}
	atom[496]{
		type = "Au";
		position(-6.12,6.12,12.24);
	}
	atom[497]{
		type = "Au";
		position(-4.08,-6.12,-6.12);
	}
	atom[498]{
		type = "Au";
		position(0.0,-10.2,6.12);
	}
	atom[499]{
		type = "Au";
		position(-4.08,2.04,-6.12);
	}
	atom[500]{
		type = "Au";
		position(-6.12,8.16,10.2);
	}
	atom[501]{
		type = "Au";
		position(-8.16,0.0,-12.24);
	}
	atom[502]{
		type = "Au";
		position(-8.16,0.0,0.0);
	}
	atom[503]{
		type = "Au";
		position(6.12,2.04,-8.16);
	}
	atom[504]{
		type = "Au";
		position(10.2,2.04,0.0);
	}
	atom[505]{
		type = "Au";
		position(-10.2,6.12,0.0);